
Gurobi 11.0.3 (win64, gurobi_cl) logging started Sun Nov 10 18:22:01 2024

Set parameter Username
Set parameter LogFile to value "gurobi.log"
Using license file C:\Users\thomm\gurobi.lic
Academic license - for non-commercial use only - expires 2025-10-28
